%mem=24GB
%nprocshared=12
# opt freq b3lyp/CC-PVTZ geom=connectivity

Title Card Required

0 1
 C                 -3.37282219    0.78026077    0.00000000
 O                 -2.29620141    0.12875616    0.00000000
 O                 -4.44944464    1.43176262    0.00000000

 1 2 2.0 3 2.0
 2
 3

